
Gurobi 6.0.4 (win64) logging started 06/14/15 17:41:24

Read LP format model from file E:\Eigene Dateien\Downloads\Michi shit\VRPTWMS-master\VRPTWMS\instances\mip\fuel\N9-C_DV100-C_SV25_F5_7_No_1.lp
Reading time = 0.00 seconds
(null): 514 rows, 251 columns, 2154 nonzeros
Optimize a model with 514 rows, 251 columns and 2154 nonzeros
Model has 810 quadratic constraints
WARNING: Only barrier available for SOCP models
Coefficient statistics:
  Matrix range    [1e+00, 1e+02]
  Objective range [2e+00, 1e+03]
  Bounds range    [1e+00, 1e+02]
  RHS range       [1e+00, 1e+02]
Presolve removed 47 rows and 29 columns
Presolve time: 0.06s
Presolved: 1753 rows, 894 columns, 8728 nonzeros
Variable types: 614 continuous, 280 integer (232 binary)
Found heuristic solution: objective 10403.610000
Optimize a model with 1753 rows, 894 columns and 8728 nonzeros
Coefficient statistics:
  Matrix range    [5e-01, 1e+02]
  Objective range [2e+00, 1e+03]
  Bounds range    [1e+00, 1e+02]
  RHS range       [1e+00, 1e+02]

Concurrent LP optimizer: dual simplex and barrier
Showing barrier log only...

Presolve removed 167 rows and 110 columns
Presolved: 1586 rows, 785 columns, 7955 nonzeros

Root barrier log...

Ordering time: 0.02s

Barrier performed 0 iterations in 0.09 seconds
Barrier solve interrupted - model solved by another algorithm


Solved with dual simplex
Solved in 83 iterations and 0.09 seconds
Optimal objective  6.689899286e+02

Root relaxation: objective 6.689899e+02, 83 iterations, 0.03 seconds

    Nodes    |    Current Node    |     Objective Bounds      |     Work
 Expl Unexpl |  Obj  Depth IntInf | Incumbent    BestBd   Gap | It/Node Time

     0     0  668.98993    0   26 10403.6100  668.98993  93.6%     -    0s
H    0     0                    7384.9900000  668.98993  90.9%     -    0s
     0     0 1156.93500    0   28 7384.99000 1156.93500  84.3%     -    0s
     0     0 1164.03000    0   23 7384.99000 1164.03000  84.2%     -    0s
H    0     0                    4245.5900000 1164.03000  72.6%     -    0s
     0     0 1164.09571    0   27 4245.59000 1164.09571  72.6%     -    0s
     0     0 1164.18333    0   26 4245.59000 1164.18333  72.6%     -    0s
     0     0 1164.18333    0   24 4245.59000 1164.18333  72.6%     -    0s
     0     0 1164.18333    0   26 4245.59000 1164.18333  72.6%     -    0s
H    0     0                    4239.1600000 1164.18333  72.5%     -    0s
     0     0 1164.18333    0   23 4239.16000 1164.18333  72.5%     -    0s
     0     0 1164.18333    0   24 4239.16000 1164.18333  72.5%     -    0s
     0     0 1164.18333    0   22 4239.16000 1164.18333  72.5%     -    0s
     0     0 1164.18333    0   23 4239.16000 1164.18333  72.5%     -    0s
     0     0 1164.18333    0   23 4239.16000 1164.18333  72.5%     -    0s
     0     2 1164.18333    0   23 4239.16000 1164.18333  72.5%     -    0s
H  175   113                    4230.0100000 1165.73000  72.4%  19.1    0s
  1127   654 3632.86081   35   67 4230.01000 1192.53409  71.8%  19.7    5s
H 1172   655                    4217.1800000 1207.40495  71.4%  28.8    6s
  3763   845 infeasible   38      4217.18000 2147.36291  49.1%  55.5   10s
H 4926  1141                    3313.7200000 2219.71290  33.0%  56.1   11s
H 5182  1213                    3286.0300000 2221.85594  32.4%  56.0   12s
* 5784  1373              32    3283.4700000 2231.37824  32.0%  56.3   12s
  7750  1559     cutoff   30      3283.47000 2274.00362  30.7%  58.8   15s
H 9450  1281                    3275.8500000 2305.80421  29.6%  60.8   16s
 11996   940 3215.54773   30   24 3275.85000 3160.82776  3.51%  61.0   20s
 16367   750 3212.63005   38   38 3275.85000 3211.84507  1.95%  62.0   25s

Cutting planes:
  Learned: 13
  Gomory: 5
  Cover: 227
  Implied bound: 231
  Clique: 7
  MIR: 102
  Flow cover: 174
  GUB cover: 14
  Zero half: 100
  Mod-K: 2
  Network: 1

Explored 19240 nodes (1178634 simplex iterations) in 27.93 seconds
Thread count was 4 (of 4 available processors)

Optimal solution found (tolerance 1.00e-04)
Best objective 3.275850000000e+03, best bound 3.275850000000e+03, gap 0.0%
k_c1	98.99999999999999
k_c2	11.0
k_c3	8.0
k_c4	17.0
k_c5	13.0
k_c6	100.0
k_c7	18.0
k_c8	4.0
k_c9	8.0
k_dN	-0.0
o_1	-0.0
o_2	0.0
o_3	-0.0
o_4	1.0
o_5	-0.0
o_6	-0.0
o_7	-0.0
o_8	-8.659739592076221E-15
o_9	0.0
p_1	0.0
p_2	0.0
p_3	0.0
p_4	1.0
p_5	-0.0
p_6	-0.0
p_7	-0.0
p_8	1.0
p_9	1.0
phi_c1	3.0
phi_c2	2.9999999999999996
phi_c3	1.0
phi_c4	-0.0
phi_c5	3.0
phi_c6	4.0
phi_c7	4.0
phi_c8	0.0
phi_c9	-0.0
phi_dN	-0.0
pi_c1	-0.0
pi_c2	-0.0
pi_c3	-0.0
pi_c4	21.0
pi_c5	-0.0
pi_c6	-0.0
pi_c7	-0.0
pi_c8	5.000000000000011
pi_c9	10.000000000000007
pi_dN	-0.0
tauD_c1	17.0
tauD_c2	54.0
tauD_c3	60.0
tauD_c4	25.0
tauD_c5	46.0
tauD_c6	4.000000000000284
tauD_c7	45.0
tauD_c8	70.0
tauD_c9	65.0
tauD_d0	-0.0
tauD_dN	100.0
tauS_c1	89.0
tauS_c2	90.0
tauS_c3	5.0000000000000036
tauS_c4	25.0
tauS_c5	82.0
tauS_c6	88.00000000000004
tauS_c7	-0.0
tauS_c8	83.99999999999999
tauS_c9	38.0
tauS_d0	-0.0
tauS_dN	100.0
x_c1_c4	1.0
x_c2_c9	1.0
x_c3_c8	1.0
x_c4_c5	1.0
x_c5_c3	1.0
x_c6_c1	1.0
x_c7_c2	1.0
x_c8_dN	1.0
x_c9_dN	1.0
x_d0_c6	1.0
x_d0_c7	1.0
z_c4_c9	1.0
z_c8_dN	1.0
z_c9_c8	1.0
z_d0_c4	1.0
